\* Service_Selection_Problem *\
Minimize
OBJ: 0.000666666666667 product_page_aws_sa_east_1_1_review_aws_sa_east_1_1
 + 0.572884210526 product_page_aws_sa_east_1_1_review_aws_us_east_1_1
 + product_page_aws_sa_east_1_1_review_gcp_eu_west_1_1
 + 0.992222222222 product_page_aws_us_east_1_1_review_aws_sa_east_1_1
 + 0.00111111111111 product_page_aws_us_east_1_1_review_aws_us_east_1_1
 + 0.6865 product_page_aws_us_east_1_1_review_gcp_eu_west_1_1
 + product_page_gcp_asia_east_1_1_review_aws_sa_east_1_1
 + 0.6184375 product_page_gcp_asia_east_1_1_review_aws_us_east_1_1
 + 0.942272727273 product_page_gcp_asia_east_1_1_review_gcp_eu_west_1_1
 + product_page_gcp_eu_west_1_1_review_aws_sa_east_1_1
 + 0.401285714286 product_page_gcp_eu_west_1_1_review_aws_us_east_1_1
 + 0.983220338983 product_page_gcp_us_west_1_1_review_aws_sa_east_1_1
 + 0.356779661017 product_page_gcp_us_west_1_1_review_aws_us_east_1_1
 + 0.997272727273 product_page_gcp_us_west_1_1_review_gcp_eu_west_1_1
Subject To
_C1: product_page_aws_us_east_1_1_review_aws_sa_east_1_1
 + product_page_aws_us_east_1_1_review_aws_us_east_1_1
 + product_page_aws_us_east_1_1_review_gcp_eu_west_1_1 = 29990
_C2: product_page_gcp_us_west_1_1_review_aws_sa_east_1_1
 + product_page_gcp_us_west_1_1_review_aws_us_east_1_1
 + product_page_gcp_us_west_1_1_review_gcp_eu_west_1_1 = 29990
_C3: product_page_gcp_eu_west_1_1_review_aws_sa_east_1_1
 + product_page_gcp_eu_west_1_1_review_aws_us_east_1_1
 + product_page_gcp_eu_west_1_1_review_gcp_eu_west_1_1 = 29990
_C4: product_page_aws_sa_east_1_1_review_aws_sa_east_1_1
 + product_page_aws_sa_east_1_1_review_aws_us_east_1_1
 + product_page_aws_sa_east_1_1_review_gcp_eu_west_1_1 = 29990
_C5: product_page_gcp_asia_east_1_1_review_aws_sa_east_1_1
 + product_page_gcp_asia_east_1_1_review_aws_us_east_1_1
 + product_page_gcp_asia_east_1_1_review_gcp_eu_west_1_1 = 29990
_C6: product_page_aws_sa_east_1_1_review_aws_us_east_1_1
 + product_page_aws_us_east_1_1_review_aws_us_east_1_1
 + product_page_gcp_asia_east_1_1_review_aws_us_east_1_1
 + product_page_gcp_eu_west_1_1_review_aws_us_east_1_1
 + product_page_gcp_us_west_1_1_review_aws_us_east_1_1 <= 60000
_C7: product_page_aws_sa_east_1_1_review_gcp_eu_west_1_1
 + product_page_aws_us_east_1_1_review_gcp_eu_west_1_1
 + product_page_gcp_asia_east_1_1_review_gcp_eu_west_1_1
 + product_page_gcp_eu_west_1_1_review_gcp_eu_west_1_1
 + product_page_gcp_us_west_1_1_review_gcp_eu_west_1_1 <= 60000
_C8: product_page_aws_sa_east_1_1_review_aws_sa_east_1_1
 + product_page_aws_us_east_1_1_review_aws_sa_east_1_1
 + product_page_gcp_asia_east_1_1_review_aws_sa_east_1_1
 + product_page_gcp_eu_west_1_1_review_aws_sa_east_1_1
 + product_page_gcp_us_west_1_1_review_aws_sa_east_1_1 <= 60000
Bounds
product_page_aws_sa_east_1_1_review_aws_sa_east_1_1 <= 30000
product_page_aws_sa_east_1_1_review_aws_us_east_1_1 <= 30000
product_page_aws_sa_east_1_1_review_gcp_eu_west_1_1 <= 30000
product_page_aws_us_east_1_1_review_aws_sa_east_1_1 <= 30000
product_page_aws_us_east_1_1_review_aws_us_east_1_1 <= 30000
product_page_aws_us_east_1_1_review_gcp_eu_west_1_1 <= 30000
product_page_gcp_asia_east_1_1_review_aws_sa_east_1_1 <= 30000
product_page_gcp_asia_east_1_1_review_aws_us_east_1_1 <= 30000
product_page_gcp_asia_east_1_1_review_gcp_eu_west_1_1 <= 30000
product_page_gcp_eu_west_1_1_review_aws_sa_east_1_1 <= 30000
product_page_gcp_eu_west_1_1_review_aws_us_east_1_1 <= 30000
product_page_gcp_eu_west_1_1_review_gcp_eu_west_1_1 <= 30000
product_page_gcp_us_west_1_1_review_aws_sa_east_1_1 <= 30000
product_page_gcp_us_west_1_1_review_aws_us_east_1_1 <= 30000
product_page_gcp_us_west_1_1_review_gcp_eu_west_1_1 <= 30000
End
